Version identifier: 20.1.0.0 | 2020-11-10 | 9bedb6d68
CPXPARAM_Threads                                 1
CPXPARAM_TimeLimit                               7200
CPXPARAM_MIP_Tolerances_MIPGap                   0
Generic callback                                 0x60
1 of 1 MIP starts provided solutions.
MIP start 'm1' defined initial solution with objective 2154.5472.
Tried aggregator 1 time.
Reduced MIP has 1 rows, 801 columns, and 800 nonzeros.
Reduced MIP has 800 binaries, 0 generals, 0 SOSs, and 0 indicators.
Presolve time = 0.00 sec. (0.24 ticks)
Probing time = 0.00 sec. (0.09 ticks)
Tried aggregator 1 time.
Reduced MIP has 1 rows, 801 columns, and 800 nonzeros.
Reduced MIP has 800 binaries, 0 generals, 0 SOSs, and 0 indicators.
Presolve time = 0.00 sec. (0.25 ticks)
Probing time = 0.00 sec. (0.09 ticks)
MIP emphasis: balance optimality and feasibility.
MIP search method: dynamic search.
Parallel mode: none, using 1 thread.
Root relaxation solution time = 0.00 sec. (0.17 ticks)

        Nodes                                         Cuts/
   Node  Left     Objective  IInf  Best Integer    Best Bound    ItCnt     Gap

*     0+    0                         2154.5472     4368.0000           102.73%
      0     0     3063.0325     2     2154.5472     4368.0000        0  102.73%
      0     0     2719.4857     4     2154.5472 UserPurge2: 1       19   26.22%
      0     0     2443.8839     5     2154.5472 UserPurge2: 1       34   13.43%
      0     0     2412.3262     6     2154.5472 UserPurge2: 1       42   11.96%
      0     0     2386.5367     7     2154.5472 UserPurge2: 1       53   10.77%
      0     0     2374.4226     7     2154.5472 UserPurge2: 1       77   10.21%
      0     0     2347.8204     8     2154.5472 UserPurge2: 1      101    8.97%
      0     0     2343.5396    10     2154.5472 UserPurge1: 1      111    8.77%
      0     0     2312.6007     9     2154.5472 UserPurge2: 1      132    7.34%
      0     0     2307.4840     9     2154.5472 UserPurge2: 1      146    7.10%
      0     0     2302.3766    10     2154.5472 UserPurge2: 1      165    6.86%
      0     0     2300.0603    10     2154.5472 UserPurge1: 1      172    6.75%
      0     0     2296.3343    10     2154.5472 UserPurge2: 1      186    6.58%
      0     0     2295.2990    12     2154.5472 UserPurge1: 2      193    6.53%
      0     0     2287.9835     8     2154.5472 UserPurge2: 1      222    6.19%
      0     0     2287.5555     9     2154.5472 UserPurge1: 2      228    6.17%
      0     0     2282.2065     9     2154.5472 UserPurge2: 1      240    5.93%
      0     0     2278.8856     9     2154.5472 UserPurge2: 1      250    5.77%
      0     0     2277.8198    10     2154.5472 UserPurge2: 1      255    5.72%
      0     0     2269.4884    10     2154.5472 UserPurge2: 1      274    5.33%
      0     0     2259.4269    10     2154.5472 UserPurge2: 1      307    4.87%
      0     0     2253.0081     9     2154.5472 UserPurge2: 1      320    4.57%
      0     0     2252.8383    11     2154.5472 UserPurge1: 1      322    4.56%
      0     0     2250.3963     9     2154.5472 UserPurge2: 1      352    4.45%
      0     0     2247.1894     9     2154.5472 UserPurge2: 1      360    4.30%
      0     0     2245.0143     9     2154.5472 UserPurge2: 1      370    4.20%
*     0+    0                         2156.0499     2245.0143             4.13%
      0     0     2244.3204    10     2156.0499 UserPurge2: 1      375    4.09%
      0     0     2243.0708    10     2156.0499 UserPurge2: 1      386    4.04%
      0     0     2241.1632     9     2156.0499 UserPurge2: 1      393    3.95%
      0     0     2239.6582    10     2156.0499 UserPurge2: 1      403    3.88%
      0     0     2236.7671    11     2156.0499 UserPurge2: 1      427    3.74%
      0     0     2234.2932    11     2156.0499 UserPurge2: 1      447    3.63%
      0     0     2232.3394    11     2156.0499 UserPurge2: 1      459    3.54%
      0     0     2231.3230    12     2156.0499 UserPurge2: 1      475    3.49%
      0     0     2231.1149    13     2156.0499 UserPurge2: 1      482    3.48%
      0     0     2230.8375    14     2156.0499 UserPurge2: 1      495    3.47%
      0     0     2229.5060    14     2156.0499 UserPurge2: 1      518    3.41%
      0     0     2227.8997    13     2156.0499 UserPurge2: 1      542    3.33%
      0     0     2226.5695    14     2156.0499 UserPurge2: 1      558    3.27%
      0     0     2225.4465    15     2156.0499 UserPurge2: 1      584    3.22%
      0     0     2225.0166    16     2156.0499 UserPurge2: 1      605    3.20%
      0     0     2223.8285    15     2156.0499 UserPurge2: 1      631    3.14%
      0     0     2222.8225    16     2156.0499 UserPurge2: 1      651    3.10%
      0     0     2220.8698    13     2156.0499 UserPurge2: 1      679    3.01%
      0     0     2218.8021    12     2156.0499 UserPurge2: 1      699    2.91%
      0     0     2217.0149    13     2156.0499 UserPurge2: 1      715    2.83%
      0     0     2216.2067    13     2156.0499 UserPurge2: 1      734    2.79%
      0     0     2214.3884    12     2156.0499 UserPurge2: 1      771    2.71%
      0     0     2213.4212    13     2156.0499 UserPurge2: 1      788    2.66%
      0     0     2212.6525    13     2156.0499 UserPurge2: 1      800    2.63%
      0     0     2212.4754    13     2156.0499 UserPurge2: 1      809    2.62%
      0     0     2212.2509    14     2156.0499 UserPurge2: 1      813    2.61%
*     0+    0                         2159.1078     2212.2509             2.46%
      0     0     2212.0756    15     2159.1078 UserPurge2: 1      827    2.45%
      0     0     2211.8396    15     2159.1078 UserPurge2: 1      836    2.44%
*     0+    0                         2165.8218     2211.8396             2.12%
      0     0     2211.1811    15     2165.8218 UserPurge2: 1      859    2.09%
      0     0     2210.9934    15     2165.8218 UserPurge2: 1      866    2.09%
      0     0     2210.0999    15     2165.8218 UserPurge2: 1      892    2.04%
      0     0     2209.4411    15     2165.8218 UserPurge2: 1      907    2.01%
      0     0     2208.5691    16     2165.8218 UserPurge2: 1      924    1.97%
      0     0     2208.1915    16     2165.8218 UserPurge2: 1      937    1.96%
      0     0     2207.5849    16     2165.8218 UserPurge2: 1      957    1.93%
      0     0     2207.3230    16     2165.8218 UserPurge2: 1      965    1.92%
      0     0     2207.2299    17     2165.8218 UserPurge2: 1      972    1.91%
      0     0     2206.6011    17     2165.8218 UserPurge2: 1     1000    1.88%
      0     0     2205.9837    17     2165.8218 UserPurge2: 1     1017    1.85%
      0     0     2205.6602    17     2165.8218 UserPurge2: 1     1030    1.84%
      0     0     2205.4513    18     2165.8218 UserPurge2: 1     1046    1.83%
      0     0     2205.1634    18     2165.8218 UserPurge2: 1     1066    1.82%
*     0+    0                         2166.1970     2205.1634             1.80%
      0     0     2204.7602    19     2166.1970 UserPurge2: 1     1083    1.78%
      0     0     2204.5336    18     2166.1970 UserPurge2: 1     1094    1.77%
      0     0     2204.3964    18     2166.1970 UserPurge2: 1     1106    1.76%
      0     0     2204.1887    19     2166.1970 UserPurge2: 1     1117    1.75%
      0     0     2203.9714    20     2166.1970 UserPurge2: 1     1139    1.74%
      0     0     2203.5142    19     2166.1970 UserPurge2: 1     1169    1.72%
      0     0     2203.4606    19     2166.1970 UserPurge2: 1     1182    1.72%
      0     0     2202.9719    20     2166.1970 UserPurge2: 1     1206    1.70%
      0     0     2201.9567    18     2166.1970 UserPurge2: 1     1244    1.65%
      0     0     2201.5177    17     2166.1970 UserPurge2: 1     1263    1.63%
      0     0     2201.2248    17     2166.1970 UserPurge2: 1     1277    1.62%
      0     0     2200.9704    17     2166.1970 UserPurge2: 1     1292    1.61%
      0     0     2200.7360    18     2166.1970 UserPurge2: 1     1305    1.59%
      0     0     2200.6067    19     2166.1970 UserPurge2: 1     1319    1.59%
      0     0     2200.2600    19     2166.1970 UserPurge2: 1     1349    1.57%
      0     0     2199.6374    19     2166.1970 UserPurge2: 1     1374    1.54%
      0     0     2199.2950    17     2166.1970 UserPurge2: 1     1392    1.53%
      0     0     2199.2457    18     2166.1970 UserPurge2: 1     1402    1.53%
      0     0     2199.1371    19     2166.1970 UserPurge2: 1     1422    1.52%
      0     0     2198.8287    20     2166.1970 UserPurge2: 1     1440    1.51%
      0     0     2198.1738    18     2166.1970 UserPurge2: 1     1471    1.48%
      0     0     2197.7951    19     2166.1970 UserPurge2: 1     1492    1.46%
      0     0     2197.5082    18     2166.1970 UserPurge2: 1     1526    1.45%
      0     0     2197.2204    18     2166.1970 UserPurge2: 1     1544    1.43%
      0     0     2197.1107    19     2166.1970 UserPurge2: 1     1555    1.43%
      0     0     2197.0218    20     2166.1970 UserPurge2: 1     1566    1.42%
      0     0     2196.8724    20     2166.1970 UserPurge2: 1     1582    1.42%
*     0+    0                         2169.2558     2196.8724             1.27%
      0     0     2196.8036    21     2169.2558 UserPurge2: 1     1595    1.27%
*     0+    0                         2179.7205     2196.8036             0.78%
      0     2     2196.8036    21     2179.7205     2196.8016     1595    0.78%
Elapsed time = 49.25 sec. (466.17 ticks, tree = 0.01 MB, solutions = 7)
*     1     1      integral     0     2184.0000     2196.7931    12645    0.59%
      2     0        cutoff           2184.0000     2184.0000    12867    0.00%

User cuts applied:  1353

Root node processing (before b&c):
  Real time             =   49.25 sec. (469.28 ticks)
Sequential b&c:
  Real time             =   59.95 sec. (9601.91 ticks)
                          ------------
Total (root+branch&cut) =  109.20 sec. (10071.19 ticks)
@Parameters: 
is_S_cut                                true
is_add_all_yinF                         true
is_start_value                          true
is_usercut                              true
is_visualization                        false
uc_only_rootnode                        false

data                                    Qi
fn                                      data/Qi/instance_800_800.csv
mode                                    NewSubmodular
solver                                  cplex

p                                       5
r                                       5

EPS                                     1.0e-06
EPS_vio                                 1.0e-04
beta                                    0.10
gap                                     0.00
nodelimit                               Inf
timelimit                               7200.00


@PrintInfos
ItCnt: 12867
Current gap: 0.00 %
Termination Status: OPTIMAL
Primal Status: FEASIBLE_POINT
Solve Time: 109.20 sec
Objective Value: 2184.000000
Number of Nodes:      3

CutInfo: [phase] num / time (sec) 
ZLP             [phase1]     0 / 0.00 [rLC]     0 / 0.00 [rUC]     0 / 0.00 [sLC]     0 / 0.00 [sUC]     0 / 0.00 
OldSubmodular   [phase1]     0 / 0.00 [rLC]     0 / 0.00 [rUC]     0 / 0.00 [sLC]     0 / 0.00 [sUC]     0 / 0.00 
NewSubmodular   [phase1]     0 / 0.00 [rLC]   120 / 38.35 [rUC]   215 / 8.48 [sLC]     0 / 2.37 [sUC]  1324 / 49.45 
PMP             [phase1]     0 / 0.00 [rLC]    11 / 33.92 [rUC]     0 / 0.00 [sLC]     1 / 2.36 [sUC]     0 / 0.00 
Separation Round: [phase1] 0  [rLC] 72  [rUC] 97  [sLC] 1  [sUC] 384
Root Best Bound 2184.000000
Root Best Integer: 2184.000000
Best Bound: 2184.000000
Best Integer: 2184.000000

